
<<< setup


<<< generate

Version identifier: 22.1.0.0 | 2022-03-09 | 1a383f8ce
Tried aggregator 1 time.
MIP Presolve eliminated 136 rows and 289 columns.
Reduced MIP has 460 rows, 4625 columns, and 24621 nonzeros.
Reduced MIP has 4624 binaries, 1 generals, 0 SOSs, and 0 indicators.
Presolve time = 0.02 sec. (15.15 ticks)
Tried aggregator 1 time.
Detecting symmetries...
Reduced MIP has 460 rows, 4625 columns, and 24621 nonzeros.
Reduced MIP has 4624 binaries, 1 generals, 0 SOSs, and 0 indicators.
Presolve time = 0.01 sec. (14.25 ticks)
Probing time = 0.01 sec. (3.07 ticks)
Clique table members: 425.
MIP emphasis: balance optimality and feasibility.
MIP search method: dynamic search.
Parallel mode: deterministic, using up to 4 threads.
Root relaxation solution time = 0.29 sec. (220.74 ticks)

        Nodes                                         Cuts/
   Node  Left     Objective  IInf  Best Integer    Best Bound    ItCnt     Gap

      0     0      819.0000   398                    819.0000        9         
*     0+    0                          819.0000      819.0000             0.00%
      0     0        cutoff            819.0000      819.0000        9    0.00%
Elapsed time = 2.49 sec. (1965.53 ticks, tree = 0.01 MB, solutions = 1)

Root node processing (before b&c):
  Real time             =    2.49 sec. (1965.77 ticks)
Parallel b&c, 4 threads:
  Real time             =    0.00 sec. (0.00 ticks)
  Sync time (average)   =    0.00 sec.
  Wait time (average)   =    0.00 sec.
                          ------------
Total (root+branch&cut) =    2.49 sec. (1965.77 ticks)

<<< solve


OBJECTIVE: 819
1 is free in round 11
1 plays 8 white matches, and 8 black matches
2 is free in round 15
2 plays 8 white matches, and 8 black matches
3 is free in round 9
3 plays 8 white matches, and 8 black matches
4 is free in round 4
4 plays 8 white matches, and 8 black matches
5 is free in round 14
5 plays 8 white matches, and 8 black matches
6 is free in round 17
6 plays 8 white matches, and 8 black matches
7 is free in round 3
7 plays 8 white matches, and 8 black matches
8 is free in round 6
8 plays 8 white matches, and 8 black matches
9 is free in round 10
9 plays 8 white matches, and 8 black matches
10 is free in round 12
10 plays 8 white matches, and 8 black matches
11 is free in round 5
11 plays 8 white matches, and 8 black matches
12 is free in round 13
12 plays 8 white matches, and 8 black matches
13 is free in round 2
13 plays 8 white matches, and 8 black matches
14 is free in round 8
14 plays 8 white matches, and 8 black matches
15 is free in round 1
15 plays 8 white matches, and 8 black matches
16 is free in round 16
16 plays 8 white matches, and 8 black matches
17 is free in round 7
17 plays 8 white matches, and 8 black matches
Slot 1
3 white, 13 black
5 white, 2 black
6 white, 4 black
8 white, 14 black
10 white, 7 black
11 white, 17 black
12 white, 1 black
16 white, 9 black

Slot 2
1 white, 15 black
2 white, 7 black
4 white, 17 black
5 white, 12 black
6 white, 8 black
9 white, 3 black
11 white, 16 black
14 white, 10 black

Slot 3
2 white, 1 black
3 white, 10 black
4 white, 5 black
6 white, 14 black
8 white, 11 black
15 white, 9 black
16 white, 12 black
17 white, 13 black

Slot 4
1 white, 5 black
6 white, 17 black
7 white, 11 black
8 white, 2 black
10 white, 16 black
12 white, 13 black
14 white, 9 black
15 white, 3 black

Slot 5
1 white, 3 black
7 white, 16 black
9 white, 4 black
10 white, 6 black
12 white, 17 black
13 white, 5 black
14 white, 2 black
15 white, 8 black

Slot 6
2 white, 9 black
5 white, 14 black
7 white, 1 black
10 white, 4 black
11 white, 13 black
12 white, 3 black
15 white, 17 black
16 white, 6 black

Slot 7
5 white, 7 black
6 white, 15 black
8 white, 4 black
9 white, 11 black
10 white, 2 black
12 white, 14 black
13 white, 1 black
16 white, 3 black

Slot 8
5 white, 15 black
6 white, 3 black
8 white, 10 black
11 white, 2 black
12 white, 4 black
13 white, 7 black
16 white, 1 black
17 white, 9 black

Slot 9
5 white, 6 black
7 white, 4 black
8 white, 9 black
11 white, 10 black
13 white, 2 black
14 white, 1 black
15 white, 12 black
17 white, 16 black

Slot 10
3 white, 2 black
4 white, 1 black
11 white, 5 black
12 white, 6 black
14 white, 7 black
15 white, 13 black
16 white, 8 black
17 white, 10 black

Slot 11
3 white, 11 black
4 white, 2 black
5 white, 8 black
6 white, 13 black
7 white, 9 black
10 white, 12 black
14 white, 17 black
15 white, 16 black

Slot 12
2 white, 15 black
4 white, 3 black
6 white, 11 black
7 white, 12 black
9 white, 1 black
13 white, 8 black
16 white, 14 black
17 white, 5 black

Slot 13
1 white, 8 black
2 white, 16 black
4 white, 11 black
7 white, 6 black
10 white, 5 black
13 white, 9 black
14 white, 15 black
17 white, 3 black

Slot 14
1 white, 17 black
2 white, 12 black
3 white, 14 black
8 white, 7 black
9 white, 6 black
11 white, 15 black
13 white, 10 black
16 white, 4 black

Slot 15
1 white, 6 black
3 white, 8 black
4 white, 13 black
5 white, 16 black
9 white, 12 black
10 white, 15 black
11 white, 14 black
17 white, 7 black

Slot 16
1 white, 10 black
2 white, 6 black
3 white, 7 black
9 white, 5 black
12 white, 11 black
14 white, 13 black
15 white, 4 black
17 white, 8 black

Slot 17
1 white, 11 black
2 white, 17 black
3 white, 5 black
4 white, 14 black
7 white, 15 black
8 white, 12 black
9 white, 10 black
13 white, 16 black


<<< post process


<<< done

